
Gurobi 9.1.2 (win64, Java) logging started Sun Nov 14 12:52:23 2021

Academic license - for non-commercial use only - expires 2022-10-30
Gurobi Optimizer version 9.1.2 build v9.1.2rc0 (win64)
Thread count: 6 physical cores, 12 logical processors, using up to 12 threads
Optimize a model with 110 rows, 1000 columns and 2000 nonzeros
Model fingerprint: 0xf64ea600
Variable types: 0 continuous, 1000 integer (1000 binary)
Coefficient statistics:
  Matrix range     [1e+00, 1e+03]
  Objective range  [5e+00, 1e+03]
  Bounds range     [1e+00, 1e+00]
  RHS range        [1e+00, 3e+03]
Found heuristic solution: objective 28261.000000
Presolve time: 0.03s
Presolved: 110 rows, 1000 columns, 2000 nonzeros
Variable types: 0 continuous, 1000 integer (1000 binary)
Presolved: 110 rows, 1000 columns, 2000 nonzeros


Root relaxation: objective 4.242038e+04, 198 iterations, 0.01 seconds

    Nodes    |    Current Node    |     Objective Bounds      |     Work
 Expl Unexpl |  Obj  Depth IntInf | Incumbent    BestBd   Gap | It/Node Time

     0     0 42420.3843    0   10 28261.0000 42420.3843  50.1%     -    0s
H    0     0                    41524.000000 42420.3843  2.16%     -    0s
H    0     0                    41766.000000 42420.3843  1.57%     -    0s
H    0     0                    41965.000000 42420.3843  1.09%     -    1s
H    0     0                    42072.000000 42420.3843  0.83%     -    1s
H    0     0                    42135.000000 42420.3843  0.68%     -    2s
     0     0 42420.3843    0   22 42135.0000 42420.3843  0.68%     -    3s
H    0     0                    42247.000000 42420.3843  0.41%     -    3s
     0     0 42420.3843    0   23 42247.0000 42420.3843  0.41%     -    3s
     0     0 42420.3843    0   14 42247.0000 42420.3843  0.41%     -    3s
     0     0 42420.3843    0   15 42247.0000 42420.3843  0.41%     -    3s
     0     0 42395.8000    0   21 42247.0000 42395.8000  0.35%     -    4s
     0     0 42395.8000    0   21 42247.0000 42395.8000  0.35%     -    4s
     0     0 42371.2409    0   24 42247.0000 42371.2409  0.29%     -    4s
     0     0 42371.2409    0   24 42247.0000 42371.2409  0.29%     -    4s
     0     0 42371.2409    0   32 42247.0000 42371.2409  0.29%     -    4s
     0     0 42371.2409    0   12 42247.0000 42371.2409  0.29%     -    4s
H    0     2                    42268.000000 42371.2409  0.24%     -    5s
     0     2 42371.2409    0   12 42268.0000 42371.2409  0.24%     -    5s
H   39    42                    42286.000000 42371.2409  0.20%  10.1    6s
  2289  2069 42364.7256   51   25 42286.0000 42371.2409  0.20%   7.2   10s
  2926  2556 42370.0000   42   14 42286.0000 42371.2409  0.20%   7.0   16s
  3552  2776 42370.0000   56   15 42286.0000 42371.2409  0.20%   6.6   21s
 13656  9291 42348.2297  144   16 42286.0000 42370.3121  0.20%   5.2   28s
 15594 10291 42345.1377  155   15 42286.0000 42370.3121  0.20%   5.1   30s
 21094 12407     cutoff  140      42286.0000 42370.0000  0.20%   5.0   35s
 25514 13127 infeasible  158      42286.0000 42370.0000  0.20%   4.8   40s
 29856 13499     cutoff  167      42286.0000 42370.0000  0.20%   4.9   46s
 32697 13680 42370.0000  158    4 42286.0000 42370.0000  0.20%   5.0   51s
*33713   738             165    42370.000000 42370.0000  0.00%   5.0   51s

Cutting planes:
  Gomory: 4
  Cover: 151
  MIR: 1
  StrongCG: 1
  Flow cover: 1
  RLT: 1

Explored 34175 nodes (174046 simplex iterations) in 51.20 seconds
Thread count was 12 (of 12 available processors)

Solution count 10: 42370 42286 42268 ... 28261

Optimal solution found (tolerance 1.00e-12)
Best objective 4.237000000000e+04, best bound 4.237000000000e+04, gap 0.0000%
